@relation supermarket_clustering

@attribute Quantity numeric
@attribute Unit_Price numeric
@attribute Discount_Percent numeric
@attribute Total_Amount numeric

@data
1,75.00,0.00,75.00
1,40.00,0.00,40.00
1,85.00,15.00,72.25
1,40.00,10.00,36.00
2,140.00,0.00,280.00
1,48.00,10.00,43.20
5,58.00,15.00,246.50
2,20.00,20.00,32.00
2,40.00,0.00,80.00
1,135.00,5.00,128.25
1,20.00,20.00,16.00
2,33.00,10.00,59.40
1,150.00,10.00,135.00
1,33.00,20.00,26.40
1,115.00,5.00,109.25
2,105.00,0.00,210.00
2,245.00,10.00,441.00
2,20.00,5.00,38.00
1,33.00,0.00,33.00
2,20.00,0.00,40.00
4,33.00,5.00,125.40
1,20.00,0.00,20.00
2,20.00,0.00,40.00
4,119.00,0.00,476.00
2,40.00,0.00,80.00
1,33.00,5.00,31.35
2,20.00,0.00,40.00
1,20.00,20.00,16.00
4,115.00,0.00,460.00
3,150.00,5.00,427.50
2,115.00,15.00,195.50
1,58.00,5.00,55.10
1,58.00,0.00,58.00
5,45.00,5.00,213.75
1,180.00,0.00,180.00
1,58.00,15.00,49.30
2,88.00,20.00,140.80
2,33.00,20.00,52.80
1,45.00,0.00,45.00
1,20.00,15.00,17.00
1,150.00,0.00,150.00
1,115.00,10.00,103.50
1,119.00,0.00,119.00
1,58.00,10.00,52.20
1,92.00,0.00,92.00
2,92.00,10.00,165.60
1,140.00,0.00,140.00
1,20.00,10.00,18.00
2,33.00,5.00,62.70
1,35.00,20.00,28.00
2,33.00,10.00,59.40
1,85.00,0.00,85.00
1,140.00,0.00,140.00
5,58.00,5.00,275.50
5,27.00,5.00,128.25
1,33.00,10.00,29.70
1,33.00,5.00,31.35
1,40.00,0.00,40.00
1,45.00,5.00,42.75
1,28.00,0.00,28.00
1,20.00,0.00,20.00
3,150.00,0.00,450.00
1,40.00,15.00,34.00
1,20.00,0.00,20.00
1,150.00,0.00,150.00
1,45.00,15.00,38.25
1,85.00,20.00,68.00
1,145.00,0.00,145.00
2,120.00,10.00,216.00
2,40.00,0.00,80.00
1,140.00,0.00,140.00
1,165.00,15.00,140.25
2,140.00,10.00,252.00
5,140.00,15.00,595.00
1,45.00,0.00,45.00
1,20.00,10.00,18.00
2,160.00,0.00,320.00
2,33.00,0.00,66.00
1,45.00,10.00,40.50
1,105.00,0.00,105.00
1,58.00,0.00,58.00
1,33.00,0.00,33.00
2,45.00,5.00,85.50
2,110.00,15.00,187.00
3,58.00,0.00,174.00
4,20.00,0.00,80.00
1,105.00,0.00,105.00
1,85.00,0.00,85.00
1,85.00,5.00,80.75
2,45.00,0.00,90.00
3,45.00,5.00,128.25
1,85.00,5.00,80.75
2,20.00,0.00,40.00
1,58.00,0.00,58.00
1,140.00,15.00,119.00
1,40.00,10.00,36.00
1,20.00,5.00,19.00
1,33.00,0.00,33.00
2,48.00,5.00,91.20
1,45.00,15.00,38.25
1,45.00,0.00,45.00
2,140.00,0.00,280.00
1,40.00,0.00,40.00
1,140.00,0.00,140.00
1,20.00,0.00,20.00
1,145.00,10.00,130.50
1,20.00,0.00,20.00
2,20.00,0.00,40.00
1,115.00,0.00,115.00
3,150.00,0.00,450.00
3,160.00,0.00,480.00
1,20.00,0.00,20.00
1,105.00,5.00,99.75
5,140.00,10.00,630.00
1,150.00,0.00,150.00
1,45.00,5.00,42.75
2,150.00,0.00,300.00
1,105.00,0.00,105.00
1,140.00,10.00,126.00
1,20.00,0.00,20.00
1,40.00,10.00,36.00
1,85.00,0.00,85.00
1,150.00,0.00,150.00
1,33.00,0.00,33.00
2,85.00,10.00,153.00
3,45.00,0.00,135.00
1,40.00,0.00,40.00
1,115.00,5.00,109.25
2,58.00,5.00,110.20
1,35.00,0.00,35.00
1,20.00,5.00,19.00
4,58.00,20.00,185.60
1,20.00,0.00,20.00
2,115.00,0.00,230.00
2,48.00,15.00,81.60
3,40.00,0.00,120.00
1,165.00,5.00,156.75
1,85.00,0.00,85.00
2,40.00,0.00,80.00
3,33.00,15.00,84.15
1,45.00,10.00,40.50
2,140.00,10.00,252.00
4,120.00,0.00,480.00
4,58.00,0.00,232.00
1,40.00,0.00,40.00
1,40.00,5.00,38.00
2,135.00,10.00,243.00
2,105.00,15.00,178.50
5,150.00,0.00,750.00
1,120.00,10.00,108.00
2,40.00,0.00,80.00
1,40.00,0.00,40.00
1,120.00,0.00,120.00
1,33.00,10.00,29.70
5,140.00,5.00,665.00
1,45.00,5.00,42.75
1,40.00,0.00,40.00
2,120.00,5.00,228.00
1,119.00,20.00,95.20
1,140.00,20.00,112.00
1,115.00,5.00,109.25
1,33.00,0.00,33.00
4,85.00,0.00,340.00
1,115.00,5.00,109.25
1,105.00,0.00,105.00
3,20.00,0.00,60.00
1,40.00,10.00,36.00
2,140.00,0.00,280.00
1,20.00,0.00,20.00
5,20.00,0.00,100.00
1,28.00,10.00,25.20
1,20.00,0.00,20.00
1,30.00,5.00,28.50
1,45.00,10.00,40.50
1,140.00,0.00,140.00
1,45.00,5.00,42.75
1,45.00,0.00,45.00
2,30.00,0.00,60.00
2,135.00,10.00,243.00
1,20.00,10.00,18.00
1,115.00,0.00,115.00
5,115.00,0.00,575.00
2,20.00,0.00,40.00
1,105.00,0.00,105.00
1,105.00,0.00,105.00
3,105.00,5.00,299.25
3,30.00,15.00,76.50
2,115.00,0.00,230.00
1,20.00,0.00,20.00
2,115.00,5.00,218.50
1,140.00,10.00,126.00
1,20.00,0.00,20.00
1,45.00,0.00,45.00
2,33.00,0.00,66.00
3,20.00,20.00,48.00
4,165.00,0.00,660.00
4,27.00,0.00,108.00
1,58.00,0.00,58.00
1,58.00,5.00,55.10
2,45.00,5.00,85.50
1,20.00,5.00,19.00
1,105.00,10.00,94.50
2,30.00,15.00,51.00
1,33.00,0.00,33.00
1,58.00,0.00,58.00
4,20.00,0.00,80.00
2,115.00,10.00,207.00
4,85.00,0.00,340.00
1,48.00,10.00,43.20
2,33.00,0.00,66.00
2,140.00,10.00,252.00
1,35.00,0.00,35.00
1,150.00,5.00,142.50
1,105.00,0.00,105.00
2,145.00,0.00,290.00
2,75.00,15.00,127.50
1,180.00,5.00,171.00
2,20.00,10.00,36.00
1,140.00,0.00,140.00
2,40.00,5.00,76.00
1,140.00,0.00,140.00
1,85.00,5.00,80.75
1,119.00,0.00,119.00
4,165.00,0.00,660.00
1,140.00,5.00,133.00
1,20.00,0.00,20.00
1,20.00,0.00,20.00
1,20.00,0.00,20.00
