@relation supermarket_classification

@attribute Customer_Age_Group {Youth,Young_Adult,Middle_Aged,Senior}
@attribute Customer_Gender {Male,Female,Other}
@attribute Payment_Mode {Cash,UPI,Credit_Card,Debit_Card}
@attribute Product_Category {Grocery,Dairy,Bakery,Beverages,Personal_Care,Household}
@attribute Quantity numeric
@attribute Unit_Price numeric
@attribute Discount_Percent numeric
@attribute Total_Amount numeric
@attribute Purchase_Level {Low,Medium,High}

@data
Senior_(51+),Female,Credit_Card,Grocery_&_Staples,1,75.00,0.00,75.00,Low
Young_Adult_(26-35),Female,Credit_Card,Snacks_&_Beverages,1,40.00,0.00,40.00,Low
Middle-Aged_(36-50),Female,Cash,Snacks_&_Beverages,1,85.00,15.00,72.25,Low
Young_Adult_(26-35),Male,UPI,Snacks_&_Beverages,1,40.00,10.00,36.00,Low
Senior_(51+),Male,Credit_Card,Household_Essentials,2,140.00,0.00,280.00,Medium
Senior_(51+),Female,UPI,Grocery_&_Staples,1,48.00,10.00,43.20,Low
Middle-Aged_(36-50),Male,Cash,Dairy_&_Bakery,5,58.00,15.00,246.50,Medium
Young_Adult_(26-35),Male,UPI,Snacks_&_Beverages,2,20.00,20.00,32.00,Low
Middle-Aged_(36-50),Male,Debit_Card,Snacks_&_Beverages,2,40.00,0.00,80.00,Low
Young_Adult_(26-35),Female,UPI,Personal_Care,1,135.00,5.00,128.25,Low
Middle-Aged_(36-50),Male,UPI,Snacks_&_Beverages,1,20.00,20.00,16.00,Low
Senior_(51+),Male,UPI,Dairy_&_Bakery,2,33.00,10.00,59.40,Low
Young_Adult_(26-35),Male,UPI,Snacks_&_Beverages,1,150.00,10.00,135.00,Low
Young_Adult_(26-35),Male,UPI,Dairy_&_Bakery,1,33.00,20.00,26.40,Low
Young_Adult_(26-35),Female,UPI,Household_Essentials,1,115.00,5.00,109.25,Low
Senior_(51+),Female,Cash,Household_Essentials,2,105.00,0.00,210.00,Medium
Youth_(18-25),Female,UPI,Grocery_&_Staples,2,245.00,10.00,441.00,Medium
Senior_(51+),Female,Debit_Card,Snacks_&_Beverages,2,20.00,5.00,38.00,Low
Young_Adult_(26-35),Male,UPI,Dairy_&_Bakery,1,33.00,0.00,33.00,Low
Young_Adult_(26-35),Female,UPI,Snacks_&_Beverages,2,20.00,0.00,40.00,Low
Senior_(51+),Female,Cash,Dairy_&_Bakery,4,33.00,5.00,125.40,Low
Young_Adult_(26-35),Male,UPI,Snacks_&_Beverages,1,20.00,0.00,20.00,Low
Young_Adult_(26-35),Male,UPI,Snacks_&_Beverages,2,20.00,0.00,40.00,Low
Youth_(18-25),Male,UPI,Personal_Care,4,119.00,0.00,476.00,Medium
Youth_(18-25),Female,UPI,Snacks_&_Beverages,2,40.00,0.00,80.00,Low
Senior_(51+),Male,UPI,Dairy_&_Bakery,1,33.00,5.00,31.35,Low
Youth_(18-25),Female,Credit_Card,Snacks_&_Beverages,2,20.00,0.00,40.00,Low
Youth_(18-25),Male,Debit_Card,Snacks_&_Beverages,1,20.00,20.00,16.00,Low
Senior_(51+),Male,UPI,Household_Essentials,4,115.00,0.00,460.00,Medium
Middle-Aged_(36-50),Female,UPI,Snacks_&_Beverages,3,150.00,5.00,427.50,Medium
Senior_(51+),Female,Cash,Household_Essentials,2,115.00,15.00,195.50,Low
Young_Adult_(26-35),Female,UPI,Dairy_&_Bakery,1,58.00,5.00,55.10,Low
Senior_(51+),Female,Debit_Card,Dairy_&_Bakery,1,58.00,0.00,58.00,Low
Senior_(51+),Male,Cash,Dairy_&_Bakery,5,45.00,5.00,213.75,Medium
Young_Adult_(26-35),Male,Cash,Personal_Care,1,180.00,0.00,180.00,Low
Youth_(18-25),Male,Credit_Card,Dairy_&_Bakery,1,58.00,15.00,49.30,Low
Youth_(18-25),Male,UPI,Household_Essentials,2,88.00,20.00,140.80,Low
Middle-Aged_(36-50),Female,UPI,Dairy_&_Bakery,2,33.00,20.00,52.80,Low
Youth_(18-25),Female,UPI,Dairy_&_Bakery,1,45.00,0.00,45.00,Low
Middle-Aged_(36-50),Female,Cash,Snacks_&_Beverages,1,20.00,15.00,17.00,Low
Middle-Aged_(36-50),Female,UPI,Snacks_&_Beverages,1,150.00,0.00,150.00,Low
Middle-Aged_(36-50),Female,UPI,Household_Essentials,1,115.00,10.00,103.50,Low
Young_Adult_(26-35),Male,Cash,Personal_Care,1,119.00,0.00,119.00,Low
Middle-Aged_(36-50),Female,Cash,Dairy_&_Bakery,1,58.00,10.00,52.20,Low
Middle-Aged_(36-50),Male,Debit_Card,Dairy_&_Bakery,1,92.00,0.00,92.00,Low
Youth_(18-25),Male,UPI,Dairy_&_Bakery,2,92.00,10.00,165.60,Low
Young_Adult_(26-35),Male,Cash,Household_Essentials,1,140.00,0.00,140.00,Low
Youth_(18-25),Female,UPI,Snacks_&_Beverages,1,20.00,10.00,18.00,Low
Youth_(18-25),Female,UPI,Dairy_&_Bakery,2,33.00,5.00,62.70,Low
Middle-Aged_(36-50),Male,UPI,Dairy_&_Bakery,1,35.00,20.00,28.00,Low
Middle-Aged_(36-50),Female,UPI,Dairy_&_Bakery,2,33.00,10.00,59.40,Low
Youth_(18-25),Male,Cash,Snacks_&_Beverages,1,85.00,0.00,85.00,Low
Youth_(18-25),Male,UPI,Grocery_&_Staples,1,140.00,0.00,140.00,Low
Senior_(51+),Female,Cash,Dairy_&_Bakery,5,58.00,5.00,275.50,Medium
Senior_(51+),Female,UPI,Dairy_&_Bakery,5,27.00,5.00,128.25,Low
Middle-Aged_(36-50),Female,UPI,Dairy_&_Bakery,1,33.00,10.00,29.70,Low
Youth_(18-25),Male,Credit_Card,Dairy_&_Bakery,1,33.00,5.00,31.35,Low
Senior_(51+),Female,Debit_Card,Snacks_&_Beverages,1,40.00,0.00,40.00,Low
Middle-Aged_(36-50),Female,UPI,Dairy_&_Bakery,1,45.00,5.00,42.75,Low
Senior_(51+),Female,UPI,Grocery_&_Staples,1,28.00,0.00,28.00,Low
Senior_(51+),Female,Cash,Snacks_&_Beverages,1,20.00,0.00,20.00,Low
Youth_(18-25),Male,Credit_Card,Snacks_&_Beverages,3,150.00,0.00,450.00,Medium
Senior_(51+),Female,Debit_Card,Snacks_&_Beverages,1,40.00,15.00,34.00,Low
Youth_(18-25),Female,UPI,Snacks_&_Beverages,1,20.00,0.00,20.00,Low
Young_Adult_(26-35),Female,UPI,Snacks_&_Beverages,1,150.00,0.00,150.00,Low
Senior_(51+),Female,Cash,Dairy_&_Bakery,1,45.00,15.00,38.25,Low
Senior_(51+),Female,Debit_Card,Snacks_&_Beverages,1,85.00,20.00,68.00,Low
Senior_(51+),Female,Credit_Card,Personal_Care,1,145.00,0.00,145.00,Low
Senior_(51+),Female,Debit_Card,Household_Essentials,2,120.00,10.00,216.00,Medium
Young_Adult_(26-35),Male,UPI,Snacks_&_Beverages,2,40.00,0.00,80.00,Low
Senior_(51+),Male,UPI,Household_Essentials,1,140.00,0.00,140.00,Low
Young_Adult_(26-35),Male,Cash,Grocery_&_Staples,1,165.00,15.00,140.25,Low
Senior_(51+),Female,Credit_Card,Household_Essentials,2,140.00,10.00,252.00,Medium
Middle-Aged_(36-50),Male,Cash,Household_Essentials,5,140.00,15.00,595.00,Medium
Senior_(51+),Male,UPI,Dairy_&_Bakery,1,45.00,0.00,45.00,Low
Youth_(18-25),Female,Credit_Card,Snacks_&_Beverages,1,20.00,10.00,18.00,Low
Youth_(18-25),Female,Debit_Card,Personal_Care,2,160.00,0.00,320.00,Medium
Young_Adult_(26-35),Male,Cash,Dairy_&_Bakery,2,33.00,0.00,66.00,Low
Young_Adult_(26-35),Female,UPI,Dairy_&_Bakery,1,45.00,10.00,40.50,Low
Senior_(51+),Female,Cash,Household_Essentials,1,105.00,0.00,105.00,Low
Middle-Aged_(36-50),Male,Debit_Card,Dairy_&_Bakery,1,58.00,0.00,58.00,Low
Senior_(51+),Male,Cash,Dairy_&_Bakery,1,33.00,0.00,33.00,Low
Young_Adult_(26-35),Male,UPI,Dairy_&_Bakery,2,45.00,5.00,85.50,Low
Young_Adult_(26-35),Female,UPI,Household_Essentials,2,110.00,15.00,187.00,Low
Youth_(18-25),Male,Cash,Dairy_&_Bakery,3,58.00,0.00,174.00,Low
Young_Adult_(26-35),Male,UPI,Snacks_&_Beverages,4,20.00,0.00,80.00,Low
Young_Adult_(26-35),Female,UPI,Household_Essentials,1,105.00,0.00,105.00,Low
Young_Adult_(26-35),Male,UPI,Snacks_&_Beverages,1,85.00,0.00,85.00,Low
Youth_(18-25),Female,UPI,Snacks_&_Beverages,1,85.00,5.00,80.75,Low
Senior_(51+),Female,Cash,Dairy_&_Bakery,2,45.00,0.00,90.00,Low
Young_Adult_(26-35),Female,Credit_Card,Dairy_&_Bakery,3,45.00,5.00,128.25,Low
Youth_(18-25),Male,Debit_Card,Snacks_&_Beverages,1,85.00,5.00,80.75,Low
Middle-Aged_(36-50),Female,UPI,Snacks_&_Beverages,2,20.00,0.00,40.00,Low
Youth_(18-25),Male,Cash,Dairy_&_Bakery,1,58.00,0.00,58.00,Low
Young_Adult_(26-35),Female,UPI,Household_Essentials,1,140.00,15.00,119.00,Low
Young_Adult_(26-35),Female,UPI,Snacks_&_Beverages,1,40.00,10.00,36.00,Low
Youth_(18-25),Female,Debit_Card,Snacks_&_Beverages,1,20.00,5.00,19.00,Low
Youth_(18-25),Female,UPI,Dairy_&_Bakery,1,33.00,0.00,33.00,Low
Youth_(18-25),Female,Credit_Card,Grocery_&_Staples,2,48.00,5.00,91.20,Low
Senior_(51+),Male,UPI,Dairy_&_Bakery,1,45.00,15.00,38.25,Low
Young_Adult_(26-35),Male,Cash,Dairy_&_Bakery,1,45.00,0.00,45.00,Low
Middle-Aged_(36-50),Female,UPI,Household_Essentials,2,140.00,0.00,280.00,Medium
Middle-Aged_(36-50),Female,UPI,Snacks_&_Beverages,1,40.00,0.00,40.00,Low
Young_Adult_(26-35),Male,Cash,Household_Essentials,1,140.00,0.00,140.00,Low
Youth_(18-25),Male,Cash,Snacks_&_Beverages,1,20.00,0.00,20.00,Low
Youth_(18-25),Male,Cash,Personal_Care,1,145.00,10.00,130.50,Low
Young_Adult_(26-35),Female,UPI,Snacks_&_Beverages,1,20.00,0.00,20.00,Low
Young_Adult_(26-35),Female,UPI,Snacks_&_Beverages,2,20.00,0.00,40.00,Low
Senior_(51+),Male,UPI,Household_Essentials,1,115.00,0.00,115.00,Low
Senior_(51+),Male,Cash,Snacks_&_Beverages,3,150.00,0.00,450.00,Medium
Senior_(51+),Male,Credit_Card,Personal_Care,3,160.00,0.00,480.00,Medium
Youth_(18-25),Female,UPI,Snacks_&_Beverages,1,20.00,0.00,20.00,Low
Senior_(51+),Male,UPI,Household_Essentials,1,105.00,5.00,99.75,Low
Senior_(51+),Male,Credit_Card,Dairy_&_Bakery,5,140.00,10.00,630.00,High
Young_Adult_(26-35),Male,Cash,Snacks_&_Beverages,1,150.00,0.00,150.00,Low
Middle-Aged_(36-50),Female,UPI,Dairy_&_Bakery,1,45.00,5.00,42.75,Low
Senior_(51+),Male,Cash,Snacks_&_Beverages,2,150.00,0.00,300.00,Medium
Youth_(18-25),Female,Credit_Card,Household_Essentials,1,105.00,0.00,105.00,Low
Senior_(51+),Male,Cash,Household_Essentials,1,140.00,10.00,126.00,Low
Young_Adult_(26-35),Female,UPI,Snacks_&_Beverages,1,20.00,0.00,20.00,Low
Youth_(18-25),Female,UPI,Snacks_&_Beverages,1,40.00,10.00,36.00,Low
Middle-Aged_(36-50),Male,Debit_Card,Snacks_&_Beverages,1,85.00,0.00,85.00,Low
Young_Adult_(26-35),Male,UPI,Snacks_&_Beverages,1,150.00,0.00,150.00,Low
Youth_(18-25),Male,Cash,Dairy_&_Bakery,1,33.00,0.00,33.00,Low
Young_Adult_(26-35),Male,UPI,Snacks_&_Beverages,2,85.00,10.00,153.00,Low
Youth_(18-25),Male,Cash,Dairy_&_Bakery,3,45.00,0.00,135.00,Low
Youth_(18-25),Male,Debit_Card,Snacks_&_Beverages,1,40.00,0.00,40.00,Low
Middle-Aged_(36-50),Male,Cash,Household_Essentials,1,115.00,5.00,109.25,Low
Senior_(51+),Male,UPI,Dairy_&_Bakery,2,58.00,5.00,110.20,Low
Youth_(18-25),Male,UPI,Dairy_&_Bakery,1,35.00,0.00,35.00,Low
Youth_(18-25),Female,Credit_Card,Snacks_&_Beverages,1,20.00,5.00,19.00,Low
Young_Adult_(26-35),Male,UPI,Dairy_&_Bakery,4,58.00,20.00,185.60,Low
Youth_(18-25),Male,Debit_Card,Snacks_&_Beverages,1,20.00,0.00,20.00,Low
Senior_(51+),Male,Cash,Household_Essentials,2,115.00,0.00,230.00,Medium
Senior_(51+),Male,Credit_Card,Grocery_&_Staples,2,48.00,15.00,81.60,Low
Middle-Aged_(36-50),Male,UPI,Snacks_&_Beverages,3,40.00,0.00,120.00,Low
Middle-Aged_(36-50),Female,UPI,Grocery_&_Staples,1,165.00,5.00,156.75,Low
Senior_(51+),Female,Credit_Card,Snacks_&_Beverages,1,85.00,0.00,85.00,Low
Middle-Aged_(36-50),Female,Cash,Snacks_&_Beverages,2,40.00,0.00,80.00,Low
Young_Adult_(26-35),Female,UPI,Dairy_&_Bakery,3,33.00,15.00,84.15,Low
Senior_(51+),Female,Debit_Card,Dairy_&_Bakery,1,45.00,10.00,40.50,Low
Middle-Aged_(36-50),Male,UPI,Household_Essentials,2,140.00,10.00,252.00,Medium
Young_Adult_(26-35),Female,UPI,Household_Essentials,4,120.00,0.00,480.00,Medium
Young_Adult_(26-35),Male,Cash,Dairy_&_Bakery,4,58.00,0.00,232.00,Medium
Young_Adult_(26-35),Female,UPI,Snacks_&_Beverages,1,40.00,0.00,40.00,Low
Senior_(51+),Female,Cash,Snacks_&_Beverages,1,40.00,5.00,38.00,Low
Middle-Aged_(36-50),Male,Debit_Card,Grocery_&_Staples,2,135.00,10.00,243.00,Medium
Senior_(51+),Female,Credit_Card,Household_Essentials,2,105.00,15.00,178.50,Low
Middle-Aged_(36-50),Female,UPI,Snacks_&_Beverages,5,150.00,0.00,750.00,High
Middle-Aged_(36-50),Male,Cash,Household_Essentials,1,120.00,10.00,108.00,Low
Young_Adult_(26-35),Female,UPI,Snacks_&_Beverages,2,40.00,0.00,80.00,Low
Young_Adult_(26-35),Male,UPI,Snacks_&_Beverages,1,40.00,0.00,40.00,Low
Middle-Aged_(36-50),Female,UPI,Household_Essentials,1,120.00,0.00,120.00,Low
Senior_(51+),Female,Debit_Card,Dairy_&_Bakery,1,33.00,10.00,29.70,Low
Senior_(51+),Female,Cash,Household_Essentials,5,140.00,5.00,665.00,High
Middle-Aged_(36-50),Female,UPI,Dairy_&_Bakery,1,45.00,5.00,42.75,Low
Youth_(18-25),Male,Cash,Snacks_&_Beverages,1,40.00,0.00,40.00,Low
Senior_(51+),Female,UPI,Household_Essentials,2,120.00,5.00,228.00,Medium
Senior_(51+),Female,UPI,Personal_Care,1,119.00,20.00,95.20,Low
Middle-Aged_(36-50),Female,Cash,Household_Essentials,1,140.00,20.00,112.00,Low
Youth_(18-25),Male,Credit_Card,Household_Essentials,1,115.00,5.00,109.25,Low
Senior_(51+),Female,Cash,Dairy_&_Bakery,1,33.00,0.00,33.00,Low
Young_Adult_(26-35),Female,UPI,Snacks_&_Beverages,4,85.00,0.00,340.00,Medium
Senior_(51+),Female,Credit_Card,Household_Essentials,1,115.00,5.00,109.25,Low
Middle-Aged_(36-50),Male,Cash,Household_Essentials,1,105.00,0.00,105.00,Low
Senior_(51+),Female,Debit_Card,Snacks_&_Beverages,3,20.00,0.00,60.00,Low
Youth_(18-25),Female,UPI,Snacks_&_Beverages,1,40.00,10.00,36.00,Low
Senior_(51+),Male,UPI,Household_Essentials,2,140.00,0.00,280.00,Medium
Young_Adult_(26-35),Female,Credit_Card,Snacks_&_Beverages,1,20.00,0.00,20.00,Low
Middle-Aged_(36-50),Male,Debit_Card,Snacks_&_Beverages,5,20.00,0.00,100.00,Low
Youth_(18-25),Female,Credit_Card,Grocery_&_Staples,1,28.00,10.00,25.20,Low
Young_Adult_(26-35),Male,UPI,Snacks_&_Beverages,1,20.00,0.00,20.00,Low
Young_Adult_(26-35),Female,UPI,Snacks_&_Beverages,1,30.00,5.00,28.50,Low
Middle-Aged_(36-50),Female,Cash,Dairy_&_Bakery,1,45.00,10.00,40.50,Low
Young_Adult_(26-35),Female,UPI,Household_Essentials,1,140.00,0.00,140.00,Low
Young_Adult_(26-35),Male,UPI,Dairy_&_Bakery,1,45.00,5.00,42.75,Low
Middle-Aged_(36-50),Female,UPI,Dairy_&_Bakery,1,45.00,0.00,45.00,Low
Senior_(51+),Male,Credit_Card,Snacks_&_Beverages,2,30.00,0.00,60.00,Low
Senior_(51+),Female,Debit_Card,Personal_Care,2,135.00,10.00,243.00,Medium
Middle-Aged_(36-50),Female,UPI,Snacks_&_Beverages,1,20.00,10.00,18.00,Low
Middle-Aged_(36-50),Female,Cash,Household_Essentials,1,115.00,0.00,115.00,Low
Senior_(51+),Male,UPI,Household_Essentials,5,115.00,0.00,575.00,Medium
Middle-Aged_(36-50),Male,UPI,Snacks_&_Beverages,2,20.00,0.00,40.00,Low
Senior_(51+),Male,Cash,Household_Essentials,1,105.00,0.00,105.00,Low
Senior_(51+),Female,UPI,Household_Essentials,1,105.00,0.00,105.00,Low
Senior_(51+),Female,UPI,Household_Essentials,3,105.00,5.00,299.25,Medium
Young_Adult_(26-35),Female,Credit_Card,Snacks_&_Beverages,3,30.00,15.00,76.50,Low
Middle-Aged_(36-50),Female,UPI,Household_Essentials,2,115.00,0.00,230.00,Medium
Senior_(51+),Female,Cash,Snacks_&_Beverages,1,20.00,0.00,20.00,Low
Middle-Aged_(36-50),Male,Cash,Personal_Care,2,115.00,5.00,218.50,Medium
Senior_(51+),Male,UPI,Household_Essentials,1,140.00,10.00,126.00,Low
Young_Adult_(26-35),Female,Credit_Card,Snacks_&_Beverages,1,20.00,0.00,20.00,Low
Youth_(18-25),Male,Credit_Card,Dairy_&_Bakery,1,45.00,0.00,45.00,Low
Middle-Aged_(36-50),Female,Cash,Dairy_&_Bakery,2,33.00,0.00,66.00,Low
Young_Adult_(26-35),Female,UPI,Snacks_&_Beverages,3,20.00,20.00,48.00,Low
Youth_(18-25),Female,Credit_Card,Grocery_&_Staples,4,165.00,0.00,660.00,High
Youth_(18-25),Female,UPI,Dairy_&_Bakery,4,27.00,0.00,108.00,Low
Senior_(51+),Male,UPI,Dairy_&_Bakery,1,58.00,0.00,58.00,Low
Middle-Aged_(36-50),Female,UPI,Dairy_&_Bakery,1,58.00,5.00,55.10,Low
Young_Adult_(26-35),Male,UPI,Dairy_&_Bakery,2,45.00,5.00,85.50,Low
Middle-Aged_(36-50),Female,UPI,Snacks_&_Beverages,1,20.00,5.00,19.00,Low
Senior_(51+),Male,UPI,Household_Essentials,1,105.00,10.00,94.50,Low
Senior_(51+),Male,Credit_Card,Snacks_&_Beverages,2,30.00,15.00,51.00,Low
Middle-Aged_(36-50),Female,UPI,Dairy_&_Bakery,1,33.00,0.00,33.00,Low
Youth_(18-25),Female,UPI,Dairy_&_Bakery,1,58.00,0.00,58.00,Low
Youth_(18-25),Female,UPI,Snacks_&_Beverages,4,20.00,0.00,80.00,Low
Young_Adult_(26-35),Male,Cash,Household_Essentials,2,115.00,10.00,207.00,Medium
Senior_(51+),Female,UPI,Snacks_&_Beverages,4,85.00,0.00,340.00,Medium
Middle-Aged_(36-50),Male,UPI,Grocery_&_Staples,1,48.00,10.00,43.20,Low
Young_Adult_(26-35),Male,UPI,Dairy_&_Bakery,2,33.00,0.00,66.00,Low
Middle-Aged_(36-50),Male,UPI,Dairy_&_Bakery,2,140.00,10.00,252.00,Medium
Senior_(51+),Female,UPI,Dairy_&_Bakery,1,35.00,0.00,35.00,Low
Middle-Aged_(36-50),Female,UPI,Snacks_&_Beverages,1,150.00,5.00,142.50,Low
Senior_(51+),Male,UPI,Household_Essentials,1,105.00,0.00,105.00,Low
Youth_(18-25),Female,Credit_Card,Personal_Care,2,145.00,0.00,290.00,Medium
Middle-Aged_(36-50),Female,UPI,Grocery_&_Staples,2,75.00,15.00,127.50,Low
Senior_(51+),Female,Debit_Card,Personal_Care,1,180.00,5.00,171.00,Low
Middle-Aged_(36-50),Male,Debit_Card,Snacks_&_Beverages,2,20.00,10.00,36.00,Low
Youth_(18-25),Male,Credit_Card,Household_Essentials,1,140.00,0.00,140.00,Low
Youth_(18-25),Female,Credit_Card,Snacks_&_Beverages,2,40.00,5.00,76.00,Low
Youth_(18-25),Female,UPI,Grocery_&_Staples,1,140.00,0.00,140.00,Low
Middle-Aged_(36-50),Female,UPI,Snacks_&_Beverages,1,85.00,5.00,80.75,Low
Senior_(51+),Female,Credit_Card,Personal_Care,1,119.00,0.00,119.00,Low
Senior_(51+),Female,UPI,Grocery_&_Staples,4,165.00,0.00,660.00,High
Young_Adult_(26-35),Female,UPI,Grocery_&_Staples,1,140.00,5.00,133.00,Low
Youth_(18-25),Female,UPI,Snacks_&_Beverages,1,20.00,0.00,20.00,Low
Middle-Aged_(36-50),Female,Cash,Snacks_&_Beverages,1,20.00,0.00,20.00,Low
Young_Adult_(26-35),Female,UPI,Snacks_&_Beverages,1,20.00,0.00,20.00,Low
