@relation supermarket_association

@attribute Dairy_Bakery {t, ?}
@attribute Grocery_Staples {t, ?}
@attribute Household_Essentials {t, ?}
@attribute Personal_Care {t, ?}
@attribute Snacks_Beverages {t, ?}

@data
?,?,t,?,?
?,?,?,?,t
?,?,t,?,?
?,?,?,?,t
?,t,t,t,t
t,?,?,?,t
t,t,?,?,?
?,?,?,?,t
t,?,?,?,?
?,?,?,?,t
t,?,?,?,?
t,?,?,?,t
t,?,?,?,t
?,?,t,?,?
t,?,?,?,?
?,?,?,?,t
t,?,?,?,t
?,?,t,t,t
t,?,?,?,?
t,?,?,?,?
?,?,t,?,?
t,?,?,?,t
?,t,?,t,t
?,?,t,t,t
t,?,?,t,?
t,?,?,?,?
?,?,t,?,?
?,?,t,?,?
?,?,t,?,?
?,t,?,t,t
?,?,?,?,t
?,?,?,?,t
t,?,?,?,t
?,?,?,?,t
t,t,t,?,?
t,t,t,?,?
?,?,?,?,t
?,?,t,?,?
?,?,?,?,t
?,?,?,?,t
t,t,?,t,?
?,t,t,?,t
t,?,?,?,t
?,?,t,?,?
?,t,t,?,?
t,?,?,?,t
?,?,?,t,t
t,?,?,t,?
?,?,t,?,?
t,t,t,?,?
t,?,?,?,t
t,?,?,?,?
t,?,?,?,t
t,t,t,?,?
t,?,?,t,t
t,?,?,?,t
?,?,?,?,t
?,t,t,?,?
?,?,?,?,t
?,?,?,?,t
?,?,?,?,t
?,?,t,?,?
?,?,t,?,?
t,?,t,t,?
t,t,?,?,?
?,?,t,?,?
?,t,t,?,t
?,?,?,?,t
t,?,?,?,?
?,?,t,?,?
?,?,?,?,t
t,?,?,?,?
?,?,?,?,t
?,?,?,?,t
t,?,?,?,t
